# 90592
param k := 6;
param n := 60;
param s := 1;
set E :=  (0,24) (1,26) (1,35) (2,17) (2,21) (3,16) (3,43) (4,35) (5,6) (5,13) (6,38) (7,14) (7,23) (7,44) (8,10) (8,27) (8,42) (8,47) (9,32) (9,41) (9,50) (10,14) (11,28) (12,58) (14,30) (14,55) (15,40) (15,52) (18,48) (19,35) (20,37) (20,48) (21,39) (22,37) (22,54) (24,25) (24,37) (26,51) (28,46) (28,55) (29,58) (31,36) (31,49) (32,52) (33,55) (34,49) (35,53) (35,54) (36,44) (38,43) (38,46) (38,59) (39,47) (41,57) (44,45) (44,54) (44,58) (53,56) (57,59);